webassembly/ejemplos_dzn/folder8_json_43.dzn
TERM = { '.', 's(2)', 's(5)', 's(4)', 'local_1', 's(6)', 's(1)', 's(0)', 's(3)', 'in_0'};
null = '.';
s = 8;
n = 9;
ndeps = 5;
max_registers_sz = 3;
NR = 0;
registers = [| |];
dependencies = [|'i32.load_1', 'call[function_index(0)]_3', |'call[function_index(0)]_3', 'i32.store_4', |'i32.store_4', 'i32.load_5', |'i32.store_4', 'i32.load16_s_7', |'i32.load16_u_2', 'call[function_index(0)]_3'|];
GET_ENUM = { GET1, GET2, GET3};
SET_ENUM = { SET1, SET2, SET3};
TEE_ENUM = { TEE1, TEE2, TEE3};
N = 8;
OP = { 'call[function_index(0)]_3', 'i32.load_1', 'i32.load16_u_2', 'i32.store_4', 'i32.load_5', 'i32.sub_0', 'i32.load16_s_7', 'local.get_0' };
in_ops = [0, 1, 1, 2, 1, 2, 1, 0 ];
out_ops = [2, 1, 1, 0, 1, 1, 1, 1 ];
in1 = ['.', 'local_1', 's(0)', 's(3)', 's(1)', 's(4)', 's(5)', '.' ];
in2 = ['.', '.', '.', 's(2)', '.', 'in_0', '.', '.' ];
in3 = ['.', '.', '.', '.', '.', '.', '.', '.' ];
out1 = ['s(3)', 's(0)', 's(1)', '.', 's(4)', 's(5)', 's(6)', 'local_1' ];
out2 = ['s(2)', '.', '.', '.', '.', '.', '.', '.' ];
out3 = ['.', '.', '.', '.', '.', '.', '.', '.' ];
comm = [false, false, false, false, false, false, false, false ];
gas = [1, 1, 1, 1, 1, 1, 1, 1 ];
sz = [1, 1, 1, 1, 1, 1, 1, 1 ];
stor = [true, false, false, true, false, false, false, false ];
lb = [ 1, 1, 1, 1, 1, 1, 1, 1 ];
ub = [ 8, 8, 8, 8, 8, 8, 8, 8 ];
startstack = [ 'in_0', null, null, null, null, null, null, null, null ];
endstack = [ 's(6)', null, null, null, null, null, null, null, null ];
